(set-info :source |printed by MathSAT|)
(declare-fun |main::expr_tmp_var_6_uchar@3| () (_ BitVec 8))
(declare-fun |main::expr_tmp_var_6_uchar@4| () (_ BitVec 8))
(declare-fun |main::expr_tmp_var_6_uchar@5| () (_ BitVec 8))
(declare-fun |main::expr_tmp_var_6_uchar@6| () (_ BitVec 8))
(declare-fun |main::expr_tmp_var_6_uchar@7| () (_ BitVec 8))
(declare-fun |main::expr_tmp_var_6_uchar@8| () (_ BitVec 8))
(declare-fun |main::expr_tmp_var_6_uchar@9| () (_ BitVec 8))
(declare-fun |main::expr_tmp_var_6_uchar@10| () (_ BitVec 8))
(assert (let ((.def_13 ((_ zero_extend 24) |main::expr_tmp_var_6_uchar@3|)))(let ((.def_17 (= .def_13 (_ bv7 32))))(let ((.def_19 (not .def_17)))(let ((.def_12 (= |main::expr_tmp_var_6_uchar@3| (_ bv0 8))))(let ((.def_723 (and .def_12 .def_19)))(let ((.def_56 (bvadd (_ bv1 32) .def_13)))(let ((.def_60 ((_ extract 7 0) .def_56)))(let ((.def_61 (bvand (_ bv7 8) .def_60)))(let ((.def_63 (= .def_61 |main::expr_tmp_var_6_uchar@4|)))(let ((.def_724 (and .def_63 .def_723)))(let ((.def_66 ((_ zero_extend 24) |main::expr_tmp_var_6_uchar@4|)))(let ((.def_67 (= .def_66 (_ bv7 32))))(let ((.def_73 (not .def_67)))(let ((.def_725 (and .def_73 .def_724)))(let ((.def_113 (bvadd (_ bv1 32) .def_66)))(let ((.def_117 ((_ extract 7 0) .def_113)))(let ((.def_118 (bvand (_ bv7 8) .def_117)))(let ((.def_120 (= .def_118 |main::expr_tmp_var_6_uchar@5|)))(let ((.def_726 (and .def_120 .def_725)))(let ((.def_123 ((_ zero_extend 24) |main::expr_tmp_var_6_uchar@5|)))(let ((.def_124 (= .def_123 (_ bv7 32))))(let ((.def_140 (not .def_124)))(let ((.def_727 (and .def_140 .def_726)))(let ((.def_145 (bvadd (_ bv1 32) .def_123)))(let ((.def_149 ((_ extract 7 0) .def_145)))(let ((.def_150 (bvand (_ bv7 8) .def_149)))(let ((.def_152 (= .def_150 |main::expr_tmp_var_6_uchar@6|)))(let ((.def_728 (and .def_152 .def_727)))(let ((.def_155 ((_ zero_extend 24) |main::expr_tmp_var_6_uchar@6|)))(let ((.def_156 (= .def_155 (_ bv7 32))))(let ((.def_183 (not .def_156)))(let ((.def_729 (and .def_183 .def_728)))(let ((.def_275 (bvadd (_ bv1 32) .def_155)))(let ((.def_279 ((_ extract 7 0) .def_275)))(let ((.def_280 (bvand (_ bv7 8) .def_279)))(let ((.def_282 (= .def_280 |main::expr_tmp_var_6_uchar@7|)))(let ((.def_730 (and .def_282 .def_729)))(let ((.def_285 ((_ zero_extend 24) |main::expr_tmp_var_6_uchar@7|)))(let ((.def_286 (= .def_285 (_ bv7 32))))(let ((.def_312 (not .def_286)))(let ((.def_731 (and .def_312 .def_730)))(let ((.def_317 (bvadd (_ bv1 32) .def_285)))(let ((.def_321 ((_ extract 7 0) .def_317)))(let ((.def_322 (bvand (_ bv7 8) .def_321)))(let ((.def_324 (= .def_322 |main::expr_tmp_var_6_uchar@8|)))(let ((.def_732 (and .def_324 .def_731)))(let ((.def_327 ((_ zero_extend 24) |main::expr_tmp_var_6_uchar@8|)))(let ((.def_328 (= .def_327 (_ bv7 32))))(let ((.def_383 (not .def_328)))(let ((.def_733 (and .def_383 .def_732)))(let ((.def_572 (bvadd (_ bv1 32) .def_327)))(let ((.def_576 ((_ extract 7 0) .def_572)))(let ((.def_577 (bvand (_ bv7 8) .def_576)))(let ((.def_579 (= .def_577 |main::expr_tmp_var_6_uchar@9|)))(let ((.def_734 (and .def_579 .def_733)))(let ((.def_583 ((_ zero_extend 24) |main::expr_tmp_var_6_uchar@9|)))(let ((.def_584 (= .def_583 (_ bv7 32))))(let ((.def_619 (not .def_584)))(let ((.def_735 (and .def_619 .def_734)))(let ((.def_624 (bvadd (_ bv1 32) .def_583)))(let ((.def_628 ((_ extract 7 0) .def_624)))(let ((.def_629 (bvand (_ bv7 8) .def_628)))(let ((.def_631 (= .def_629 |main::expr_tmp_var_6_uchar@10|)))(let ((.def_736 (and .def_631 .def_735)))(let ((.def_635 ((_ zero_extend 24) |main::expr_tmp_var_6_uchar@10|)))(let ((.def_636 (= .def_635 (_ bv7 32))))(let ((.def_737 (and .def_636 .def_736))).def_737))))))))))))))))))))))))))))))))))))))))))))))))))))))))))))))))))))